
n_res = 6;
rcap = [30, 34, 31, 34, 1308, 1344];
rtype = [1, 1, 1, 1, 2, 2];
n_tasks = 100;
modes =  [{1, 2, 3, 4, 5, 6}, {7, 8, 9, 10, 11, 12}, {13, 14, 15, 16, 17, 18}, {19, 20, 21, 22, 23, 24}, {25, 26, 27, 28, 29, 30}, {31, 32, 33, 34, 35, 36}, {37, 38, 39, 40, 41, 42}, {43, 44, 45, 46, 47, 48}, {49, 50, 51, 52, 53, 54}, {55, 56, 57, 58, 59, 60}, {61, 62, 63, 64, 65, 66}, {67, 68, 69, 70, 71, 72}, {73, 74, 75, 76, 77, 78}, {79, 80, 81, 82, 83, 84}, {85, 86, 87, 88, 89, 90}, {91, 92, 93, 94, 95, 96}, {97, 98, 99, 100, 101, 102}, {103, 104, 105, 106, 107, 108}, {109, 110, 111, 112, 113, 114}, {115, 116, 117, 118, 119, 120}, {121, 122, 123, 124, 125, 126}, {127, 128, 129, 130, 131, 132}, {133, 134, 135, 136, 137, 138}, {139, 140, 141, 142, 143, 144}, {145, 146, 147, 148, 149, 150}, {151, 152, 153, 154, 155, 156}, {157, 158, 159, 160, 161, 162}, {163, 164, 165, 166, 167, 168}, {169, 170, 171, 172, 173, 174}, {175, 176, 177, 178, 179, 180}, {181, 182, 183, 184, 185, 186}, {187, 188, 189, 190, 191, 192}, {193, 194, 195, 196, 197, 198}, {199, 200, 201, 202, 203, 204}, {205, 206, 207, 208, 209, 210}, {211, 212, 213, 214, 215, 216}, {217, 218, 219, 220, 221, 222}, {223, 224, 225, 226, 227, 228}, {229, 230, 231, 232, 233, 234}, {235, 236, 237, 238, 239, 240}, {241, 242, 243, 244, 245, 246}, {247, 248, 249, 250, 251, 252}, {253, 254, 255, 256, 257, 258}, {259, 260, 261, 262, 263, 264}, {265, 266, 267, 268, 269, 270}, {271, 272, 273, 274, 275, 276}, {277, 278, 279, 280, 281, 282}, {283, 284, 285, 286, 287, 288}, {289, 290, 291, 292, 293, 294}, {295, 296, 297, 298, 299, 300}, {301, 302, 303, 304, 305, 306}, {307, 308, 309, 310, 311, 312}, {313, 314, 315, 316, 317, 318}, {319, 320, 321, 322, 323, 324}, {325, 326, 327, 328, 329, 330}, {331, 332, 333, 334, 335, 336}, {337, 338, 339, 340, 341, 342}, {343, 344, 345, 346, 347, 348}, {349, 350, 351, 352, 353, 354}, {355, 356, 357, 358, 359, 360}, {361, 362, 363, 364, 365, 366}, {367, 368, 369, 370, 371, 372}, {373, 374, 375, 376, 377, 378}, {379, 380, 381, 382, 383, 384}, {385, 386, 387, 388, 389, 390}, {391, 392, 393, 394, 395, 396}, {397, 398, 399, 400, 401, 402}, {403, 404, 405, 406, 407, 408}, {409, 410, 411, 412, 413, 414}, {415, 416, 417, 418, 419, 420}, {421, 422, 423, 424, 425, 426}, {427, 428, 429, 430, 431, 432}, {433, 434, 435, 436, 437, 438}, {439, 440, 441, 442, 443, 444}, {445, 446, 447, 448, 449, 450}, {451, 452, 453, 454, 455, 456}, {457, 458, 459, 460, 461, 462}, {463, 464, 465, 466, 467, 468}, {469, 470, 471, 472, 473, 474}, {475, 476, 477, 478, 479, 480}, {481, 482, 483, 484, 485, 486}, {487, 488, 489, 490, 491, 492}, {493, 494, 495, 496, 497, 498}, {499, 500, 501, 502, 503, 504}, {505, 506, 507, 508, 509, 510}, {511, 512, 513, 514, 515, 516}, {517, 518, 519, 520, 521, 522}, {523, 524, 525, 526, 527, 528}, {529, 530, 531, 532, 533, 534}, {535, 536, 537, 538, 539, 540}, {541, 542, 543, 544, 545, 546}, {547, 548, 549, 550, 551, 552}, {553, 554, 555, 556, 557, 558}, {559, 560, 561, 562, 563, 564}, {565, 566, 567, 568, 569, 570}, {571, 572, 573, 574, 575, 576}, {577, 578, 579, 580, 581, 582}, {583, 584, 585, 586, 587, 588}, {589, 590, 591, 592, 593, 594}, {595, 596, 597, 598, 599, 600}];
succ =  [{24, 20, 18, 16, 13, 11, 9}, {33, 30, 24, 23, 20, 19, 18, 16}, {30, 23, 14, 13, 12}, {34, 33, 24, 23, 22, 19, 16, 13}, {34, 33, 25, 24, 22, 19, 13}, {33, 31, 29, 24, 20, 16}, {34, 22, 17, 13}, {41, 33, 32, 31, 30, 29, 28, 27, 26, 25, 23, 20}, {38, 34, 33, 32, 31, 30, 29, 28, 26, 23, 22}, {41, 40, 37, 32, 30, 29, 27, 26, 25, 24}, {37, 34, 32, 30, 28, 27, 26, 25, 23}, {40, 29, 27, 26, 25, 22, 20}, {41, 40, 38, 32, 31, 29, 27, 26, 21}, {33, 29, 28, 27, 26, 25, 21}, {41, 40, 29, 28, 27, 25, 20}, {41, 32, 28, 27, 26, 25, 21}, {41, 37, 33, 32, 30, 27, 25}, {45, 40, 39, 38, 31, 29, 27}, {40, 39, 29, 28, 27, 26}, {46, 44, 43, 39, 37, 36, 35, 34}, {46, 44, 43, 39, 37, 36, 35}, {52, 47, 44, 42, 41, 37, 36}, {51, 49, 47, 46, 44, 43, 40, 35}, {51, 46, 38, 36, 35}, {51, 49, 43, 38, 35}, {51, 47, 46, 43, 42, 36}, {46, 43, 36, 35}, {49, 47, 43, 35}, {56, 50, 49, 48, 47, 44, 43}, {55, 51, 48, 46, 45, 43}, {59, 51, 49, 44, 42}, {42, 39}, {59, 56, 44, 40}, {68, 59, 58, 51, 42}, {68, 59, 56, 52, 42}, {56, 55, 54, 53, 50, 49, 48}, {61, 59, 58, 51, 50, 45}, {68, 58, 53, 50, 48, 47}, {70, 68, 61, 60, 58, 53, 51, 47}, {68, 58, 42}, {68, 58, 54, 48, 46}, {55, 54, 53, 50, 48}, {70, 68, 60, 59, 58, 57, 54, 53}, {70, 68, 67, 65, 64, 60, 58, 54, 53}, {70, 68, 67, 65, 64, 60, 57, 53}, {73, 61, 56, 50}, {65, 63, 62, 59, 55, 54}, {83, 74, 73, 70, 69, 67, 66, 65, 64, 61, 60}, {71, 70, 68, 67, 66, 64, 63, 58}, {70, 67, 66, 63, 60, 57}, {74, 64, 62, 56, 54}, {70, 69, 63, 61, 54}, {84, 77, 74, 71, 69, 66, 63}, {84, 83, 77, 73, 72, 71, 66}, {80, 77, 74, 73, 69, 67}, {84, 77, 72, 71, 69, 66}, {83, 80, 74, 62}, {83, 80, 76, 62}, {80, 74, 67, 64}, {76, 71, 62}, {80, 62}, {84, 81, 79, 78, 77, 72}, {83, 81, 79, 78, 76, 72}, {84, 81, 79, 78, 76, 72}, {91, 87, 84, 82, 81, 79, 78, 77, 76}, {91, 81, 80, 79, 78, 76, 75}, {84, 81, 79, 76, 72}, {91, 84, 80, 79, 75, 74}, {91, 86, 82, 79, 78, 75}, {100, 99, 86, 84, 80, 78}, {99, 91, 90, 87, 86, 78}, {91, 88, 85, 82, 75}, {91, 88, 85, 75}, {87, 82, 78}, {99, 98, 97, 96, 94, 90, 89, 87}, {97, 90, 88, 86, 85}, {99, 97, 86, 85}, {97, 96, 88, 85}, {99, 96, 93, 90, 89, 88}, {89, 82}, {94, 90, 86}, {97, 96, 94, 93, 92, 90}, {100, 99, 96, 94, 93, 89}, {97, 93, 89, 88}, {98, 94, 93, 89}, {96, 95, 93, 89}, {100, 93, 92}, {95, 94}, {92}, {95}, {92}, {}, {}, {}, {}, {}, {}, {}, {}, {}];
n_opt = 600;
dur = [2, 6, 7, 16, 24, 25, 11, 16, 18, 25, 26, 27, 1, 2, 16, 22, 23, 27, 3, 4, 5, 6, 7, 30, 3, 9, 18, 21, 25, 28, 12, 26, 27, 28, 29, 30, 3, 13, 17, 19, 20, 27, 1, 2, 8, 11, 18, 28, 5, 21, 23, 24, 25, 29, 2, 3, 9, 10, 11, 14, 3, 6, 10, 22, 25, 28, 3, 9, 10, 20, 27, 28, 2, 15, 21, 22, 23, 25, 1, 16, 17, 26, 28, 29, 8, 17, 18, 21, 23, 25, 2, 9, 11, 19, 22, 23, 2, 4, 8, 20, 22, 25, 3, 4, 5, 11, 15, 29, 4, 7, 16, 22, 24, 29, 5, 13, 16, 20, 27, 29, 7, 13, 18, 21, 22, 27, 2, 13, 20, 23, 24, 30, 3, 5, 6, 11, 23, 24, 8, 12, 13, 15, 16, 18, 6, 12, 20, 26, 27, 28, 10, 20, 21, 22, 23, 24, 1, 12, 15, 20, 25, 26, 2, 5, 6, 17, 25, 30, 4, 5, 10, 15, 22, 23, 4, 5, 19, 21, 23, 28, 9, 10, 14, 16, 18, 22, 1, 6, 7, 13, 21, 25, 1, 3, 7, 12, 13, 21, 2, 8, 12, 19, 22, 25, 4, 6, 9, 12, 13, 19, 2, 6, 7, 19, 24, 25, 5, 6, 12, 17, 26, 28, 18, 19, 20, 21, 27, 28, 2, 6, 22, 24, 25, 27, 5, 12, 15, 16, 17, 19, 1, 2, 3, 12, 19, 21, 2, 4, 7, 23, 24, 28, 7, 9, 13, 14, 25, 28, 4, 5, 6, 21, 27, 28, 2, 20, 21, 26, 27, 28, 2, 4, 9, 12, 17, 20, 5, 6, 16, 21, 29, 30, 3, 6, 11, 12, 13, 24, 6, 10, 11, 17, 21, 22, 16, 17, 18, 21, 22, 25, 1, 16, 19, 24, 28, 30, 6, 9, 11, 12, 15, 16, 1, 2, 6, 26, 27, 29, 1, 2, 9, 10, 23, 28, 7, 9, 14, 23, 29, 30, 6, 16, 21, 22, 23, 30, 1, 3, 18, 24, 27, 28, 1, 12, 14, 16, 28, 29, 7, 13, 15, 16, 17, 21, 7, 8, 10, 13, 15, 16, 4, 8, 12, 13, 18, 19, 1, 19, 20, 21, 22, 27, 4, 7, 9, 18, 22, 27, 12, 13, 16, 17, 18, 21, 1, 5, 9, 11, 17, 18, 1, 16, 18, 19, 20, 29, 3, 4, 6, 7, 22, 29, 8, 10, 23, 24, 27, 28, 3, 9, 18, 19, 28, 29, 2, 9, 10, 22, 23, 30, 3, 12, 15, 17, 18, 25, 1, 3, 13, 20, 25, 29, 4, 7, 13, 22, 24, 26, 10, 12, 13, 22, 23, 24, 1, 4, 6, 11, 21, 22, 7, 9, 13, 15, 17, 23, 7, 8, 16, 20, 27, 28, 4, 7, 8, 14, 15, 24, 5, 11, 13, 14, 22, 29, 4, 5, 15, 23, 27, 28, 6, 20, 22, 26, 28, 30, 3, 6, 10, 11, 15, 23, 1, 6, 13, 16, 28, 30, 1, 3, 4, 21, 29, 30, 4, 17, 20, 21, 24, 28, 4, 11, 15, 16, 20, 22, 3, 8, 17, 24, 28, 29, 9, 10, 13, 17, 18, 27, 5, 11, 14, 18, 20, 22, 4, 14, 27, 29, 29, 30, 2, 3, 4, 13, 20, 23, 1, 2, 6, 16, 20, 30, 5, 6, 8, 14, 27, 30, 3, 6, 14, 23, 24, 26, 3, 13, 16, 20, 21, 28, 2, 10, 14, 17, 22, 28, 2, 3, 8, 21, 25, 26, 15, 18, 22, 24, 26, 29, 3, 7, 15, 19, 20, 26, 5, 6, 11, 19, 21, 27];
rreq = [|2, 2, 2, 2, 2, 2, 1, 1, 1, 1, 1, 1, 2, 1, 1, 1, 1, 1, 3, 2, 2, 1, 1, 1, 2, 2, 2, 2, 2, 2, 5, 5, 5, 5, 5, 5, 5, 4, 4, 4, 4, 4, 1, 1, 1, 1, 1, 1, 1, 1, 1, 1, 1, 1, 1, 1, 1, 1, 1, 1, 2, 2, 2, 2, 2, 2, 5, 4, 3, 2, 2, 1, 4, 3, 3, 2, 2, 2, 5, 4, 4, 4, 4, 4, 4, 4, 4, 3, 3, 3, 3, 2, 2, 2, 1, 1, 4, 3, 3, 3, 2, 2, 3, 3, 2, 2, 1, 1, 5, 4, 4, 4, 4, 4, 4, 4, 3, 2, 2, 1, 3, 2, 2, 2, 2, 2, 5, 4, 3, 3, 2, 2, 3, 2, 2, 1, 1, 1, 4, 4, 3, 3, 2, 2, 2, 2, 2, 2, 2, 2, 5, 4, 3, 3, 2, 1, 4, 4, 4, 4, 4, 4, 4, 4, 4, 4, 4, 4, 5, 4, 3, 3, 1, 1, 3, 2, 2, 2, 2, 2, 4, 4, 4, 4, 4, 4, 5, 4, 4, 4, 4, 4, 3, 3, 3, 2, 2, 1, 4, 3, 2, 2, 1, 1, 5, 4, 3, 3, 2, 1, 2, 2, 2, 1, 1, 1, 5, 4, 4, 4, 4, 4, 2, 2, 2, 2, 2, 2, 5, 5, 5, 5, 5, 5, 1, 1, 1, 1, 1, 1, 2, 2, 2, 2, 2, 2, 5, 5, 5, 5, 5, 5, 4, 4, 4, 4, 4, 4, 2, 2, 2, 2, 2, 2, 3, 3, 3, 2, 2, 2, 3, 2, 2, 2, 1, 1, 4, 4, 4, 4, 3, 3, 3, 3, 3, 3, 3, 3, 3, 3, 3, 3, 3, 3, 5, 4, 4, 3, 3, 3, 5, 4, 4, 4, 4, 4, 4, 4, 4, 4, 4, 4, 5, 5, 5, 5, 5, 5, 4, 3, 3, 3, 2, 2, 4, 3, 3, 2, 1, 1, 5, 3, 3, 2, 1, 1, 4, 3, 3, 3, 3, 3, 2, 1, 1, 1, 1, 1, 5, 4, 4, 3, 3, 2, 4, 4, 4, 4, 4, 4, 4, 3, 3, 3, 2, 2, 5, 4, 4, 3, 3, 3, 3, 3, 3, 2, 2, 2, 5, 4, 4, 3, 3, 3, 4, 4, 4, 4, 4, 4, 1, 1, 1, 1, 1, 1, 2, 2, 2, 2, 1, 1, 4, 4, 4, 4, 4, 4, 4, 4, 3, 3, 1, 1, 3, 3, 3, 3, 3, 3, 1, 1, 1, 1, 1, 1, 3, 3, 3, 2, 2, 2, 2, 2, 2, 2, 2, 2, 4, 3, 3, 3, 3, 3, 5, 4, 4, 4, 4, 4, 1, 1, 1, 1, 1, 1, 3, 3, 3, 3, 2, 2, 4, 4, 4, 3, 3, 3, 4, 4, 4, 4, 4, 4, 4, 3, 2, 2, 2, 1, 5, 4, 4, 3, 3, 2, 1, 1, 1, 1, 1, 1, 3, 3, 3, 3, 3, 3, 5, 4, 4, 4, 4, 4, 5, 5, 5, 5, 5, 5, 1, 1, 1, 1, 1, 1, 4, 4, 4, 4, 3, 3, 2, 2, 2, 2, 2, 2, 4, 4, 4, 3, 2, 2, 4, 4, 4, 4, 4, 4, 4, 4, 4, 3, 3, 3, 4, 3, 3, 3, 2, 2, 5, 4, 4, 3, 3, 3, 3, 3, 3, 2, 2, 1, 4, 3, 3, 3, 3, 3, 5, 4, 4, 3, 3, 3, 4, 3, 3, 3, 3, 3, 3, 3, 3, 3, 3, 3, 3, 3, 3, 2, 2, 1, 5, 4, 4, 4, 4, 4
 |3, 2, 2, 1, 1, 1, 4, 3, 2, 2, 1, 1, 3, 3, 3, 2, 2, 1, 2, 2, 2, 2, 2, 2, 3, 3, 3, 3, 3, 3, 5, 4, 4, 4, 4, 4, 4, 4, 4, 4, 4, 4, 5, 4, 4, 4, 3, 3, 2, 2, 2, 1, 1, 1, 5, 3, 3, 3, 1, 1, 3, 2, 2, 2, 2, 2, 5, 4, 3, 2, 1, 1, 5, 4, 3, 3, 2, 1, 3, 3, 3, 3, 2, 2, 5, 4, 4, 4, 3, 3, 4, 4, 4, 4, 4, 4, 2, 2, 2, 1, 1, 1, 3, 3, 3, 2, 2, 2, 4, 4, 4, 3, 2, 2, 5, 4, 4, 4, 3, 3, 3, 3, 3, 3, 3, 3, 3, 3, 3, 3, 3, 3, 5, 4, 3, 3, 2, 1, 5, 4, 4, 3, 3, 3, 4, 3, 3, 2, 1, 1, 4, 4, 4, 4, 4, 4, 5, 4, 3, 3, 3, 2, 5, 5, 5, 5, 5, 5, 4, 4, 3, 3, 2, 1, 2, 2, 2, 2, 2, 2, 3, 3, 3, 3, 3, 3, 4, 3, 2, 2, 1, 1, 4, 4, 4, 3, 3, 3, 3, 2, 2, 2, 1, 1, 5, 4, 4, 4, 3, 3, 4, 4, 4, 4, 4, 4, 4, 4, 4, 4, 4, 4, 3, 3, 3, 3, 3, 3, 2, 2, 2, 2, 2, 2, 4, 3, 3, 2, 2, 2, 3, 3, 3, 3, 3, 3, 4, 4, 3, 3, 2, 1, 5, 5, 5, 5, 5, 5, 5, 4, 4, 3, 2, 2, 3, 3, 3, 3, 2, 2, 4, 3, 3, 2, 2, 1, 4, 3, 3, 3, 2, 2, 1, 1, 1, 1, 1, 1, 5, 4, 4, 4, 4, 4, 4, 3, 3, 2, 1, 1, 5, 4, 3, 2, 1, 1, 5, 4, 3, 2, 2, 1, 2, 2, 2, 2, 2, 2, 4, 4, 3, 3, 2, 2, 4, 4, 4, 3, 2, 2, 1, 1, 1, 1, 1, 1, 4, 4, 3, 2, 2, 1, 3, 3, 3, 3, 3, 3, 2, 2, 2, 1, 1, 1, 5, 4, 4, 4, 4, 4, 3, 2, 2, 2, 2, 2, 4, 4, 4, 3, 3, 3, 2, 2, 2, 2, 2, 2, 2, 2, 2, 2, 1, 1, 5, 3, 3, 2, 1, 1, 1, 1, 1, 1, 1, 1, 5, 4, 3, 3, 2, 2, 3, 3, 3, 3, 3, 3, 4, 3, 2, 2, 2, 1, 3, 3, 2, 2, 1, 1, 4, 4, 3, 3, 2, 2, 3, 2, 2, 2, 2, 2, 4, 4, 4, 4, 4, 4, 1, 1, 1, 1, 1, 1, 3, 3, 3, 3, 3, 3, 4, 3, 3, 3, 2, 2, 2, 2, 2, 2, 2, 2, 5, 4, 3, 2, 2, 1, 1, 1, 1, 1, 1, 1, 5, 5, 5, 5, 5, 5, 3, 3, 3, 2, 1, 1, 3, 3, 3, 3, 3, 3, 4, 3, 3, 3, 3, 3, 4, 4, 4, 3, 3, 3, 5, 4, 3, 3, 2, 1, 5, 4, 3, 3, 3, 2, 2, 2, 2, 2, 2, 2, 3, 3, 3, 2, 2, 1, 4, 4, 4, 4, 4, 4, 2, 2, 2, 2, 2, 2, 3, 3, 3, 3, 3, 3, 3, 3, 3, 3, 3, 3, 3, 3, 3, 3, 3, 3, 3, 3, 3, 2, 2, 2, 4, 4, 3, 2, 2, 1, 2, 2, 2, 2, 2, 2, 4, 4, 3, 2, 1, 1, 4, 4, 4, 4, 4, 4, 3, 3, 3, 2, 2, 2, 2, 2, 2, 2, 2, 2
 |5, 4, 4, 3, 2, 2, 3, 3, 3, 3, 3, 3, 5, 4, 4, 4, 4, 4, 4, 4, 4, 4, 4, 4, 2, 2, 2, 2, 2, 2, 4, 3, 3, 3, 2, 2, 3, 2, 2, 2, 2, 2, 5, 4, 4, 3, 3, 3, 4, 3, 2, 2, 2, 1, 4, 4, 4, 3, 3, 3, 2, 2, 2, 2, 1, 1, 4, 3, 3, 2, 2, 1, 1, 1, 1, 1, 1, 1, 1, 1, 1, 1, 1, 1, 5, 4, 4, 4, 4, 4, 5, 4, 4, 4, 3, 3, 2, 1, 1, 1, 1, 1, 5, 4, 3, 2, 1, 1, 4, 4, 4, 4, 4, 4, 2, 1, 1, 1, 1, 1, 3, 3, 3, 2, 2, 2, 5, 4, 4, 4, 4, 4, 4, 4, 4, 4, 4, 4, 4, 3, 3, 2, 2, 1, 2, 2, 2, 2, 2, 2, 2, 1, 1, 1, 1, 1, 3, 3, 3, 3, 3, 3, 5, 4, 3, 3, 1, 1, 4, 4, 4, 3, 3, 3, 1, 1, 1, 1, 1, 1, 1, 1, 1, 1, 1, 1, 3, 3, 3, 2, 1, 1, 3, 3, 3, 2, 2, 2, 4, 4, 4, 4, 4, 4, 2, 2, 2, 2, 2, 2, 1, 1, 1, 1, 1, 1, 3, 2, 2, 2, 2, 2, 3, 3, 3, 3, 3, 3, 3, 3, 3, 3, 3, 3, 2, 1, 1, 1, 1, 1, 5, 5, 5, 5, 5, 5, 4, 3, 3, 3, 3, 3, 4, 4, 4, 4, 3, 3, 4, 4, 4, 4, 4, 4, 4, 3, 3, 3, 3, 3, 2, 1, 1, 1, 1, 1, 1, 1, 1, 1, 1, 1, 2, 2, 2, 2, 2, 2, 3, 2, 2, 1, 1, 1, 3, 2, 2, 2, 2, 2, 3, 3, 2, 2, 2, 1, 3, 3, 3, 3, 3, 3, 2, 2, 2, 2, 1, 1, 5, 5, 5, 5, 5, 5, 4, 3, 2, 2, 1, 1, 4, 4, 4, 4, 4, 4, 3, 3, 3, 3, 3, 3, 3, 3, 2, 2, 1, 1, 3, 3, 3, 2, 2, 2, 5, 5, 5, 5, 5, 5, 5, 4, 3, 3, 2, 2, 3, 3, 3, 3, 3, 3, 3, 3, 3, 3, 3, 3, 5, 4, 4, 3, 2, 2, 3, 3, 3, 3, 3, 3, 4, 3, 2, 2, 2, 1, 1, 1, 1, 1, 1, 1, 2, 1, 1, 1, 1, 1, 5, 4, 4, 3, 2, 2, 4, 4, 4, 4, 4, 4, 4, 4, 4, 4, 3, 3, 4, 3, 3, 3, 2, 2, 1, 1, 1, 1, 1, 1, 4, 4, 4, 3, 3, 3, 2, 2, 2, 2, 2, 2, 4, 4, 4, 4, 4, 4, 3, 3, 2, 2, 1, 1, 4, 3, 3, 3, 2, 2, 2, 2, 2, 2, 1, 1, 5, 3, 3, 2, 2, 1, 1, 1, 1, 1, 1, 1, 5, 5, 5, 5, 5, 5, 5, 4, 4, 4, 3, 3, 4, 4, 4, 4, 4, 4, 4, 3, 3, 2, 2, 1, 4, 3, 2, 2, 1, 1, 3, 3, 3, 3, 3, 3, 3, 2, 2, 1, 1, 1, 3, 2, 2, 2, 2, 2, 4, 3, 3, 3, 1, 1, 3, 3, 2, 2, 2, 1, 4, 4, 4, 4, 4, 4, 2, 2, 2, 1, 1, 1, 4, 4, 4, 4, 4, 4, 4, 3, 2, 2, 2, 1, 4, 4, 4, 4, 3, 3, 3, 3, 3, 3, 3, 3, 5, 5, 5, 5, 5, 5, 5, 4, 3, 3, 1, 1, 5, 4, 3, 3, 2, 2
 |4, 3, 3, 2, 2, 2, 4, 4, 4, 4, 3, 3, 5, 4, 4, 3, 3, 3, 4, 3, 3, 2, 2, 1, 4, 3, 3, 3, 3, 3, 3, 3, 3, 3, 3, 3, 3, 3, 2, 2, 2, 1, 4, 3, 3, 2, 2, 2, 2, 1, 1, 1, 1, 1, 5, 3, 3, 3, 2, 1, 4, 3, 3, 3, 3, 3, 2, 2, 2, 1, 1, 1, 4, 4, 4, 4, 4, 4, 2, 2, 2, 1, 1, 1, 3, 3, 3, 2, 2, 1, 4, 4, 4, 3, 3, 3, 2, 2, 2, 2, 1, 1, 3, 3, 3, 3, 3, 3, 5, 3, 3, 3, 1, 1, 1, 1, 1, 1, 1, 1, 3, 3, 3, 2, 2, 2, 5, 4, 4, 4, 4, 4, 5, 5, 5, 5, 5, 5, 5, 5, 5, 5, 5, 5, 5, 5, 5, 5, 5, 5, 5, 4, 4, 3, 2, 2, 3, 2, 2, 2, 2, 2, 5, 4, 4, 4, 4, 4, 4, 3, 3, 3, 2, 2, 4, 3, 3, 2, 2, 2, 5, 5, 5, 5, 5, 5, 3, 3, 3, 2, 2, 1, 5, 4, 3, 3, 1, 1, 3, 3, 3, 2, 2, 2, 5, 4, 4, 4, 4, 4, 5, 4, 3, 2, 1, 1, 2, 2, 2, 2, 2, 2, 3, 2, 2, 2, 2, 2, 3, 3, 3, 2, 1, 1, 4, 3, 3, 2, 2, 1, 2, 2, 2, 2, 2, 2, 2, 1, 1, 1, 1, 1, 2, 2, 2, 2, 2, 2, 2, 1, 1, 1, 1, 1, 4, 4, 4, 4, 4, 4, 1, 1, 1, 1, 1, 1, 5, 4, 3, 3, 3, 2, 4, 3, 2, 2, 1, 1, 5, 4, 4, 4, 4, 4, 4, 4, 4, 4, 3, 3, 3, 2, 2, 2, 2, 2, 1, 1, 1, 1, 1, 1, 3, 3, 3, 3, 3, 3, 3, 3, 3, 3, 3, 3, 2, 2, 2, 1, 1, 1, 4, 3, 3, 3, 2, 2, 5, 5, 5, 5, 5, 5, 3, 2, 2, 2, 2, 2, 3, 3, 3, 2, 2, 2, 3, 3, 3, 2, 1, 1, 2, 1, 1, 1, 1, 1, 4, 4, 4, 4, 4, 4, 5, 4, 3, 3, 2, 2, 2, 2, 2, 2, 1, 1, 5, 4, 4, 3, 3, 2, 3, 3, 3, 3, 3, 3, 3, 3, 3, 3, 3, 3, 3, 3, 3, 3, 3, 3, 4, 3, 3, 2, 2, 2, 4, 4, 4, 4, 3, 3, 2, 2, 2, 1, 1, 1, 3, 3, 3, 2, 2, 2, 3, 2, 2, 2, 1, 1, 5, 5, 5, 5, 5, 5, 5, 4, 3, 3, 2, 2, 2, 2, 2, 2, 2, 2, 4, 4, 4, 4, 4, 4, 2, 2, 2, 2, 2, 2, 3, 3, 3, 2, 2, 2, 3, 2, 2, 2, 1, 1, 2, 2, 2, 2, 2, 2, 4, 3, 3, 2, 2, 2, 2, 2, 2, 2, 2, 2, 4, 4, 3, 3, 3, 2, 5, 4, 3, 2, 2, 1, 5, 4, 4, 3, 3, 3, 2, 1, 1, 1, 1, 1, 5, 4, 3, 3, 2, 2, 4, 3, 2, 2, 1, 1, 5, 4, 4, 4, 4, 4, 4, 3, 3, 2, 1, 1, 5, 4, 3, 3, 1, 1, 5, 3, 3, 3, 2, 1, 4, 3, 3, 3, 2, 1, 3, 3, 2, 2, 1, 1, 5, 4, 4, 4, 4, 4, 4, 3, 2, 2, 1, 1, 3, 3, 3, 2, 2, 2, 4, 4, 4, 4, 4, 4, 5, 4, 3, 3, 3, 2
 |7, 7, 6, 6, 5, 5, 18, 17, 15, 12, 10, 9, 27, 20, 18, 12, 6, 4, 21, 20, 18, 17, 16, 15, 28, 26, 21, 16, 16, 9, 29, 28, 28, 28, 28, 28, 25, 22, 17, 15, 13, 7, 19, 18, 17, 17, 16, 16, 29, 27, 24, 19, 17, 13, 22, 20, 20, 18, 17, 15, 24, 23, 23, 22, 21, 21, 17, 17, 16, 14, 13, 13, 8, 8, 8, 8, 8, 8, 23, 22, 22, 22, 22, 22, 15, 14, 14, 14, 14, 14, 26, 23, 22, 18, 17, 12, 28, 25, 21, 15, 13, 8, 22, 19, 15, 12, 10, 10, 17, 15, 14, 12, 10, 7, 15, 15, 12, 9, 7, 2, 29, 28, 26, 22, 21, 19, 22, 21, 21, 20, 19, 19, 25, 25, 24, 24, 24, 23, 25, 20, 19, 17, 14, 13, 24, 17, 15, 11, 7, 3, 23, 20, 18, 13, 7, 5, 22, 22, 18, 15, 14, 12, 14, 12, 11, 10, 10, 9, 8, 7, 6, 6, 5, 4, 3, 3, 3, 2, 2, 2, 24, 24, 24, 24, 24, 24, 20, 20, 20, 20, 20, 20, 14, 12, 10, 10, 7, 6, 7, 5, 4, 4, 3, 2, 12, 12, 9, 9, 7, 5, 20, 15, 14, 12, 11, 7, 27, 27, 25, 25, 23, 23, 13, 10, 9, 8, 6, 4, 9, 9, 8, 7, 6, 5, 26, 23, 21, 19, 16, 13, 26, 24, 22, 20, 18, 14, 21, 21, 21, 20, 20, 19, 18, 13, 11, 8, 4, 1, 25, 22, 21, 16, 15, 12, 22, 21, 17, 15, 14, 10, 21, 20, 19, 16, 16, 15, 11, 10, 10, 9, 6, 6, 16, 15, 15, 15, 15, 15, 19, 16, 15, 11, 9, 9, 30, 24, 15, 11, 10, 5, 20, 19, 18, 18, 16, 16, 25, 22, 21, 18, 18, 15, 5, 4, 3, 3, 2, 2, 24, 24, 22, 22, 20, 18, 18, 16, 13, 13, 12, 10, 12, 11, 11, 11, 11, 11, 16, 15, 14, 9, 7, 4, 18, 16, 15, 13, 10, 9, 14, 12, 11, 8, 8, 6, 12, 10, 9, 8, 8, 7, 17, 17, 17, 17, 17, 17, 10, 10, 9, 8, 8, 7, 9, 9, 9, 9, 9, 9, 17, 12, 11, 9, 7, 4, 5, 3, 3, 3, 2, 1, 18, 18, 18, 18, 18, 18, 25, 21, 21, 18, 12, 9, 20, 17, 16, 14, 13, 11, 5, 5, 4, 3, 3, 2, 20, 19, 19, 19, 18, 18, 21, 18, 16, 15, 12, 10, 28, 26, 26, 25, 23, 23, 29, 28, 27, 25, 25, 23, 25, 23, 23, 23, 22, 21, 16, 14, 13, 12, 11, 10, 13, 13, 13, 13, 13, 13, 26, 21, 18, 17, 11, 10, 13, 13, 13, 12, 12, 11, 3, 3, 3, 2, 2, 2, 27, 27, 26, 26, 25, 25, 28, 25, 22, 21, 18, 17, 22, 17, 17, 9, 5, 2, 22, 21, 18, 18, 15, 14, 17, 13, 12, 7, 5, 5, 11, 10, 10, 9, 9, 8, 26, 21, 17, 10, 7, 3, 11, 10, 9, 9, 8, 8, 17, 15, 13, 11, 7, 7, 28, 27, 27, 27, 27, 27, 25, 24, 24, 23, 22, 22, 10, 8, 8, 6, 3, 2, 18, 18, 18, 18, 18, 18, 4, 4, 4, 4, 3, 3, 24, 24, 24, 24, 24, 24, 4, 4, 4, 4, 4, 4, 19, 17, 15, 14, 14, 13, 27, 27, 23, 23, 19, 18, 19, 19, 16, 10, 8, 6, 23, 20, 15, 13, 13, 8, 16, 14, 12, 9, 8, 5
 |22, 20, 18, 18, 16, 15, 27, 26, 23, 21, 19, 17, 24, 22, 18, 16, 15, 14, 10, 10, 10, 10, 10, 10, 22, 19, 15, 12, 6, 4, 29, 21, 20, 12, 9, 7, 13, 10, 9, 9, 7, 6, 23, 19, 15, 12, 9, 8, 17, 15, 15, 14, 11, 10, 29, 24, 19, 15, 13, 9, 28, 28, 27, 28, 27, 26, 21, 20, 20, 19, 18, 18, 30, 28, 26, 22, 22, 19, 18, 17, 16, 14, 14, 13, 19, 18, 12, 11, 5, 1, 27, 25, 20, 20, 14, 13, 9, 7, 6, 6, 4, 4, 27, 26, 24, 23, 22, 21, 25, 25, 23, 18, 16, 16, 24, 22, 18, 18, 14, 11, 17, 16, 16, 16, 16, 16, 9, 8, 8, 8, 6, 5, 24, 23, 23, 22, 21, 21, 18, 18, 12, 10, 5, 2, 27, 24, 23, 20, 19, 17, 9, 7, 5, 3, 2, 2, 22, 19, 16, 13, 9, 6, 21, 17, 16, 12, 9, 5, 14, 12, 10, 6, 5, 3, 26, 20, 19, 12, 9, 4, 28, 26, 25, 24, 23, 22, 18, 17, 15, 13, 8, 6, 23, 22, 21, 21, 21, 20, 20, 16, 13, 12, 9, 6, 25, 21, 19, 13, 6, 6, 28, 25, 20, 17, 16, 13, 11, 8, 6, 5, 3, 2, 26, 25, 21, 19, 17, 17, 2, 1, 1, 1, 1, 1, 26, 26, 22, 19, 14, 14, 21, 20, 15, 14, 8, 6, 14, 13, 13, 12, 12, 11, 27, 24, 23, 19, 16, 14, 28, 27, 26, 24, 24, 22, 15, 12, 12, 9, 7, 5, 20, 18, 17, 17, 15, 15, 25, 21, 18, 15, 14, 13, 18, 15, 11, 9, 6, 5, 27, 23, 19, 15, 8, 6, 22, 19, 14, 9, 8, 2, 7, 7, 7, 7, 6, 6, 22, 21, 19, 18, 17, 17, 9, 7, 5, 4, 4, 3, 22, 21, 21, 20, 19, 19, 16, 11, 10, 6, 4, 3, 15, 14, 13, 13, 13, 12, 24, 21, 19, 15, 13, 7, 8, 7, 7, 6, 5, 5, 9, 8, 8, 7, 6, 6, 25, 23, 16, 15, 7, 3, 29, 29, 29, 28, 29, 28, 26, 22, 22, 18, 16, 13, 21, 16, 14, 8, 6, 4, 15, 14, 11, 11, 8, 8, 27, 26, 25, 26, 25, 25, 23, 20, 13, 12, 4, 4, 18, 15, 13, 8, 7, 2, 28, 26, 26, 25, 24, 24, 26, 25, 24, 24, 23, 23, 22, 17, 17, 14, 11, 8, 7, 6, 6, 5, 4, 4, 15, 14, 12, 11, 11, 10, 13, 11, 8, 6, 6, 2, 13, 14, 13, 13, 13, 13, 23, 22, 20, 16, 13, 12, 22, 19, 16, 15, 12, 9, 20, 19, 18, 17, 16, 15, 27, 23, 16, 10, 10, 2, 19, 18, 17, 15, 13, 12, 25, 24, 23, 22, 21, 19, 11, 10, 10, 9, 8, 8, 17, 17, 16, 16, 16, 16, 20, 17, 14, 12, 11, 8, 9, 8, 8, 7, 7, 7, 27, 26, 25, 25, 24, 23, 26, 21, 20, 16, 11, 10, 19, 15, 13, 12, 10, 7, 18, 18, 16, 15, 13, 12, 27, 25, 24, 23, 20, 19, 2, 2, 1, 2, 3, 2, 10, 10, 9, 7, 6, 5, 29, 28, 26, 25, 24, 23, 21, 21, 20, 21, 21, 21, 30, 29, 28, 29, 29, 29, 30, 27, 25, 23, 23, 21, 15, 15, 12, 11, 9, 8, 29, 28, 28, 28, 28, 28, 20, 16, 16, 8, 7, 4, 21, 16, 14, 12, 7, 4, 20, 18, 14, 14, 10, 5|];